44623.04,61.95,75.13
49211.97,56.18,68.13
42681.32,64.77,78.55
47146.43,58.64,71.11
50723.11,54.5,66.1
46589.91,59.34,71.96
48193.33,57.36,69.57
46052.57,60.03,72.8
46675.13,59.23,71.83
47302.88,58.44,70.88
53100.01,52.06,63.14
46775.48,59.1,71.67
55595.05,49.73,60.3
41967.71,65.87,79.88
53658.31,51.52,62.48
43069.59,64.19,77.84
52524.89,52.63,63.83
49273.2,56.11,68.04
44098.95,62.69,76.02
46070.79,60.01,72.77
